computational_data/lp/K4_8.lp
Minimize
 obj: r_0 + r_1 + r_2 + r_3 + r_4 + r_5 + r_6 + r_7 + r_8 + r_9 + r_10 + r_11 + b_0 + b_1 + b_2 + b_3 + b_4 + b_5 + b_6 + b_7 + b_8 + b_9 + b_10 + b_11
Subject To
 red_nonempty: r_0 + r_1 + r_2 + r_3 + r_4 + r_5 + r_6 + r_7 + r_8 + r_9 + r_10 + r_11 >= 1
 blue_nonempty: b_0 + b_1 + b_2 + b_3 + b_4 + b_5 + b_6 + b_7 + b_8 + b_9 + b_10 + b_11 >= 1
 disjoint_0: r_0 + b_0 <= 1
 disjoint_1: r_1 + b_1 <= 1
 disjoint_2: r_2 + b_2 <= 1
 disjoint_3: r_3 + b_3 <= 1
 disjoint_4: r_4 + b_4 <= 1
 disjoint_5: r_5 + b_5 <= 1
 disjoint_6: r_6 + b_6 <= 1
 disjoint_7: r_7 + b_7 <= 1
 disjoint_8: r_8 + b_8 <= 1
 disjoint_9: r_9 + b_9 <= 1
 disjoint_10: r_10 + b_10 <= 1
 disjoint_11: r_11 + b_11 <= 1
 red_ind_0: r_0 + r_4 <= 1
 blue_ind_0: b_0 + b_4 <= 1
 red_ind_1: r_0 + r_5 <= 1
 blue_ind_1: b_0 + b_5 <= 1
 red_ind_2: r_0 + r_6 <= 1
 blue_ind_2: b_0 + b_6 <= 1
 red_ind_3: r_0 + r_7 <= 1
 blue_ind_3: b_0 + b_7 <= 1
 red_ind_4: r_0 + r_8 <= 1
 blue_ind_4: b_0 + b_8 <= 1
 red_ind_5: r_0 + r_9 <= 1
 blue_ind_5: b_0 + b_9 <= 1
 red_ind_6: r_0 + r_10 <= 1
 blue_ind_6: b_0 + b_10 <= 1
 red_ind_7: r_0 + r_11 <= 1
 blue_ind_7: b_0 + b_11 <= 1
 red_ind_8: r_1 + r_4 <= 1
 blue_ind_8: b_1 + b_4 <= 1
 red_ind_9: r_1 + r_5 <= 1
 blue_ind_9: b_1 + b_5 <= 1
 red_ind_10: r_1 + r_6 <= 1
 blue_ind_10: b_1 + b_6 <= 1
 red_ind_11: r_1 + r_7 <= 1
 blue_ind_11: b_1 + b_7 <= 1
 red_ind_12: r_1 + r_8 <= 1
 blue_ind_12: b_1 + b_8 <= 1
 red_ind_13: r_1 + r_9 <= 1
 blue_ind_13: b_1 + b_9 <= 1
 red_ind_14: r_1 + r_10 <= 1
 blue_ind_14: b_1 + b_10 <= 1
 red_ind_15: r_1 + r_11 <= 1
 blue_ind_15: b_1 + b_11 <= 1
 red_ind_16: r_2 + r_4 <= 1
 blue_ind_16: b_2 + b_4 <= 1
 red_ind_17: r_2 + r_5 <= 1
 blue_ind_17: b_2 + b_5 <= 1
 red_ind_18: r_2 + r_6 <= 1
 blue_ind_18: b_2 + b_6 <= 1
 red_ind_19: r_2 + r_7 <= 1
 blue_ind_19: b_2 + b_7 <= 1
 red_ind_20: r_2 + r_8 <= 1
 blue_ind_20: b_2 + b_8 <= 1
 red_ind_21: r_2 + r_9 <= 1
 blue_ind_21: b_2 + b_9 <= 1
 red_ind_22: r_2 + r_10 <= 1
 blue_ind_22: b_2 + b_10 <= 1
 red_ind_23: r_2 + r_11 <= 1
 blue_ind_23: b_2 + b_11 <= 1
 red_ind_24: r_3 + r_4 <= 1
 blue_ind_24: b_3 + b_4 <= 1
 red_ind_25: r_3 + r_5 <= 1
 blue_ind_25: b_3 + b_5 <= 1
 red_ind_26: r_3 + r_6 <= 1
 blue_ind_26: b_3 + b_6 <= 1
 red_ind_27: r_3 + r_7 <= 1
 blue_ind_27: b_3 + b_7 <= 1
 red_ind_28: r_3 + r_8 <= 1
 blue_ind_28: b_3 + b_8 <= 1
 red_ind_29: r_3 + r_9 <= 1
 blue_ind_29: b_3 + b_9 <= 1
 red_ind_30: r_3 + r_10 <= 1
 blue_ind_30: b_3 + b_10 <= 1
 red_ind_31: r_3 + r_11 <= 1
 blue_ind_31: b_3 + b_11 <= 1
 red_dom_0: r_4 + r_5 + r_6 + r_7 + r_8 + r_9 + r_10 + r_11 + r_0 + b_0 >= 1
 blue_dom_0: b_4 + b_5 + b_6 + b_7 + b_8 + b_9 + b_10 + b_11 + r_0 + b_0 >= 1
 red_dom_1: r_4 + r_5 + r_6 + r_7 + r_8 + r_9 + r_10 + r_11 + r_1 + b_1 >= 1
 blue_dom_1: b_4 + b_5 + b_6 + b_7 + b_8 + b_9 + b_10 + b_11 + r_1 + b_1 >= 1
 red_dom_2: r_4 + r_5 + r_6 + r_7 + r_8 + r_9 + r_10 + r_11 + r_2 + b_2 >= 1
 blue_dom_2: b_4 + b_5 + b_6 + b_7 + b_8 + b_9 + b_10 + b_11 + r_2 + b_2 >= 1
 red_dom_3: r_4 + r_5 + r_6 + r_7 + r_8 + r_9 + r_10 + r_11 + r_3 + b_3 >= 1
 blue_dom_3: b_4 + b_5 + b_6 + b_7 + b_8 + b_9 + b_10 + b_11 + r_3 + b_3 >= 1
 red_dom_4: r_0 + r_1 + r_2 + r_3 + r_4 + b_4 >= 1
 blue_dom_4: b_0 + b_1 + b_2 + b_3 + r_4 + b_4 >= 1
 red_dom_5: r_0 + r_1 + r_2 + r_3 + r_5 + b_5 >= 1
 blue_dom_5: b_0 + b_1 + b_2 + b_3 + r_5 + b_5 >= 1
 red_dom_6: r_0 + r_1 + r_2 + r_3 + r_6 + b_6 >= 1
 blue_dom_6: b_0 + b_1 + b_2 + b_3 + r_6 + b_6 >= 1
 red_dom_7: r_0 + r_1 + r_2 + r_3 + r_7 + b_7 >= 1
 blue_dom_7: b_0 + b_1 + b_2 + b_3 + r_7 + b_7 >= 1
 red_dom_8: r_0 + r_1 + r_2 + r_3 + r_8 + b_8 >= 1
 blue_dom_8: b_0 + b_1 + b_2 + b_3 + r_8 + b_8 >= 1
 red_dom_9: r_0 + r_1 + r_2 + r_3 + r_9 + b_9 >= 1
 blue_dom_9: b_0 + b_1 + b_2 + b_3 + r_9 + b_9 >= 1
 red_dom_10: r_0 + r_1 + r_2 + r_3 + r_10 + b_10 >= 1
 blue_dom_10: b_0 + b_1 + b_2 + b_3 + r_10 + b_10 >= 1
 red_dom_11: r_0 + r_1 + r_2 + r_3 + r_11 + b_11 >= 1
 blue_dom_11: b_0 + b_1 + b_2 + b_3 + r_11 + b_11 >= 1
Binary
 r_0
 r_1
 r_2
 r_3
 r_4
 r_5
 r_6
 r_7
 r_8
 r_9
 r_10
 r_11
 b_0
 b_1
 b_2
 b_3
 b_4
 b_5
 b_6
 b_7
 b_8
 b_9
 b_10
 b_11
End
