computational_data/solutions/K4_8.sol
Optimal - objective value 4.00000000
      0 r_0                         1                       1
      1 r_1                         0                       1
      2 r_2                         1                       1
      3 r_3                         0                       1
      4 r_4                         0                       1
      5 r_5                         0                       1
      6 r_6                         0                       1
      7 r_7                         0                       1
      8 r_8                         0                       1
      9 r_9                         0                       1
     10 r_10                        0                       1
     11 r_11                        0                       1
     12 b_0                         0                       1
     13 b_1                         1                       1
     14 b_2                         0                       1
     15 b_3                         1                       1
     16 b_4                         0                       1
     17 b_5                         0                       1
     18 b_6                         0                       1
     19 b_7                         0                       1
     20 b_8                         0                       1
     21 b_9                         0                       1
     22 b_10                        0                       1
     23 b_11                        0                       1
